c description: Tseitin formula on , with odd charge
c generator: CNFgen (0.9.0)
c copyright: (C) 2012-2020 Massimo Lauria <massimo.lauria@uniroma1.it>
c url: https://massimolauria.net/cnfgen
c
p cnf 40 370
1 2 3 4 5 6 0
1 2 3 4 -5 -6 0
1 2 3 -4 5 -6 0
1 2 3 -4 -5 6 0
1 2 -3 4 5 -6 0
1 2 -3 4 -5 6 0
1 2 -3 -4 5 6 0
1 2 -3 -4 -5 -6 0
1 -2 3 4 5 -6 0
1 -2 3 4 -5 6 0
1 -2 3 -4 5 6 0
1 -2 3 -4 -5 -6 0
1 -2 -3 4 5 6 0
1 -2 -3 4 -5 -6 0
1 -2 -3 -4 5 -6 0
1 -2 -3 -4 -5 6 0
-1 2 3 4 5 -6 0
-1 2 3 4 -5 6 0
-1 2 3 -4 5 6 0
-1 2 3 -4 -5 -6 0
-1 2 -3 4 5 6 0
-1 2 -3 4 -5 -6 0
-1 2 -3 -4 5 -6 0
-1 2 -3 -4 -5 6 0
-1 -2 3 4 5 6 0
-1 -2 3 4 -5 -6 0
-1 -2 3 -4 5 -6 0
-1 -2 3 -4 -5 6 0
-1 -2 -3 4 5 -6 0
-1 -2 -3 4 -5 6 0
-1 -2 -3 -4 5 6 0
-1 -2 -3 -4 -5 -6 0
-7 0
8 9 -10 0
8 -9 10 0
-8 9 10 0
-8 -9 -10 0
11 12 13 -14 0
11 12 -13 14 0
11 -12 13 14 0
11 -12 -13 -14 0
-11 12 13 14 0
-11 12 -13 -14 0
-11 -12 13 -14 0
-11 -12 -13 14 0
1 8 11 15 16 17 -18 0
1 8 11 15 16 -17 18 0
1 8 11 15 -16 17 18 0
1 8 11 15 -16 -17 -18 0
1 8 11 -15 16 17 18 0
1 8 11 -15 16 -17 -18 0
1 8 11 -15 -16 17 -18 0
1 8 11 -15 -16 -17 18 0
1 8 -11 15 16 17 18 0
1 8 -11 15 16 -17 -18 0
1 8 -11 15 -16 17 -18 0
1 8 -11 15 -16 -17 18 0
1 8 -11 -15 16 17 -18 0
1 8 -11 -15 16 -17 18 0
1 8 -11 -15 -16 17 18 0
1 8 -11 -15 -16 -17 -18 0
1 -8 11 15 16 17 18 0
1 -8 11 15 16 -17 -18 0
1 -8 11 15 -16 17 -18 0
1 -8 11 15 -16 -17 18 0
1 -8 11 -15 16 17 -18 0
1 -8 11 -15 16 -17 18 0
1 -8 11 -15 -16 17 18 0
1 -8 11 -15 -16 -17 -18 0
1 -8 -11 15 16 17 -18 0
1 -8 -11 15 16 -17 18 0
1 -8 -11 15 -16 17 18 0
1 -8 -11 15 -16 -17 -18 0
1 -8 -11 -15 16 17 18 0
1 -8 -11 -15 16 -17 -18 0
1 -8 -11 -15 -16 17 -18 0
1 -8 -11 -15 -16 -17 18 0
-1 8 11 15 16 17 18 0
-1 8 11 15 16 -17 -18 0
-1 8 11 15 -16 17 -18 0
-1 8 11 15 -16 -17 18 0
-1 8 11 -15 16 17 -18 0
-1 8 11 -15 16 -17 18 0
-1 8 11 -15 -16 17 18 0
-1 8 11 -15 -16 -17 -18 0
-1 8 -11 15 16 17 -18 0
-1 8 -11 15 16 -17 18 0
-1 8 -11 15 -16 17 18 0
-1 8 -11 15 -16 -17 -18 0
-1 8 -11 -15 16 17 18 0
-1 8 -11 -15 16 -17 -18 0
-1 8 -11 -15 -16 17 -18 0
-1 8 -11 -15 -16 -17 18 0
-1 -8 11 15 16 17 -18 0
-1 -8 11 15 16 -17 18 0
-1 -8 11 15 -16 17 18 0
-1 -8 11 15 -16 -17 -18 0
-1 -8 11 -15 16 17 18 0
-1 -8 11 -15 16 -17 -18 0
-1 -8 11 -15 -16 17 -18 0
-1 -8 11 -15 -16 -17 18 0
-1 -8 -11 15 16 17 18 0
-1 -8 -11 15 16 -17 -18 0
-1 -8 -11 15 -16 17 -18 0
-1 -8 -11 15 -16 -17 18 0
-1 -8 -11 -15 16 17 -18 0
-1 -8 -11 -15 16 -17 18 0
-1 -8 -11 -15 -16 17 18 0
-1 -8 -11 -15 -16 -17 -18 0
12 15 -19 0
12 -15 19 0
-12 15 19 0
-12 -15 -19 0
9 20 21 22 23 -24 0
9 20 21 22 -23 24 0
9 20 21 -22 23 24 0
9 20 21 -22 -23 -24 0
9 20 -21 22 23 24 0
9 20 -21 22 -23 -24 0
9 20 -21 -22 23 -24 0
9 20 -21 -22 -23 24 0
9 -20 21 22 23 24 0
9 -20 21 22 -23 -24 0
9 -20 21 -22 23 -24 0
9 -20 21 -22 -23 24 0
9 -20 -21 22 23 -24 0
9 -20 -21 22 -23 24 0
9 -20 -21 -22 23 24 0
9 -20 -21 -22 -23 -24 0
-9 20 21 22 23 24 0
-9 20 21 22 -23 -24 0
-9 20 21 -22 23 -24 0
-9 20 21 -22 -23 24 0
-9 20 -21 22 23 -24 0
-9 20 -21 22 -23 24 0
-9 20 -21 -22 23 24 0
-9 20 -21 -22 -23 -24 0
-9 -20 21 22 23 -24 0
-9 -20 21 22 -23 24 0
-9 -20 21 -22 23 24 0
-9 -20 21 -22 -23 -24 0
-9 -20 -21 22 23 24 0
-9 -20 -21 22 -23 -24 0
-9 -20 -21 -22 23 -24 0
-9 -20 -21 -22 -23 24 0
2 13 25 26 -27 0
2 13 25 -26 27 0
2 13 -25 26 27 0
2 13 -25 -26 -27 0
2 -13 25 26 27 0
2 -13 25 -26 -27 0
2 -13 -25 26 -27 0
2 -13 -25 -26 27 0
-2 13 25 26 27 0
-2 13 25 -26 -27 0
-2 13 -25 26 -27 0
-2 13 -25 -26 27 0
-2 -13 25 26 -27 0
-2 -13 25 -26 27 0
-2 -13 -25 26 27 0
-2 -13 -25 -26 -27 0
7 10 28 -29 0
7 10 -28 29 0
7 -10 28 29 0
7 -10 -28 -29 0
-7 10 28 29 0
-7 10 -28 -29 0
-7 -10 28 -29 0
-7 -10 -28 29 0
16 20 28 30 31 -32 0
16 20 28 30 -31 32 0
16 20 28 -30 31 32 0
16 20 28 -30 -31 -32 0
16 20 -28 30 31 32 0
16 20 -28 30 -31 -32 0
16 20 -28 -30 31 -32 0
16 20 -28 -30 -31 32 0
16 -20 28 30 31 32 0
16 -20 28 30 -31 -32 0
16 -20 28 -30 31 -32 0
16 -20 28 -30 -31 32 0
16 -20 -28 30 31 -32 0
16 -20 -28 30 -31 32 0
16 -20 -28 -30 31 32 0
16 -20 -28 -30 -31 -32 0
-16 20 28 30 31 32 0
-16 20 28 30 -31 -32 0
-16 20 28 -30 31 -32 0
-16 20 28 -30 -31 32 0
-16 20 -28 30 31 -32 0
-16 20 -28 30 -31 32 0
-16 20 -28 -30 31 32 0
-16 20 -28 -30 -31 -32 0
-16 -20 28 30 31 -32 0
-16 -20 28 30 -31 32 0
-16 -20 28 -30 31 32 0
-16 -20 28 -30 -31 -32 0
-16 -20 -28 30 31 32 0
-16 -20 -28 30 -31 -32 0
-16 -20 -28 -30 31 -32 0
-16 -20 -28 -30 -31 32 0
3 17 19 21 30 33 -34 0
3 17 19 21 30 -33 34 0
3 17 19 21 -30 33 34 0
3 17 19 21 -30 -33 -34 0
3 17 19 -21 30 33 34 0
3 17 19 -21 30 -33 -34 0
3 17 19 -21 -30 33 -34 0
3 17 19 -21 -30 -33 34 0
3 17 -19 21 30 33 34 0
3 17 -19 21 30 -33 -34 0
3 17 -19 21 -30 33 -34 0
3 17 -19 21 -30 -33 34 0
3 17 -19 -21 30 33 -34 0
3 17 -19 -21 30 -33 34 0
3 17 -19 -21 -30 33 34 0
3 17 -19 -21 -30 -33 -34 0
3 -17 19 21 30 33 34 0
3 -17 19 21 30 -33 -34 0
3 -17 19 21 -30 33 -34 0
3 -17 19 21 -30 -33 34 0
3 -17 19 -21 30 33 -34 0
3 -17 19 -21 30 -33 34 0
3 -17 19 -21 -30 33 34 0
3 -17 19 -21 -30 -33 -34 0
3 -17 -19 21 30 33 -34 0
3 -17 -19 21 30 -33 34 0
3 -17 -19 21 -30 33 34 0
3 -17 -19 21 -30 -33 -34 0
3 -17 -19 -21 30 33 34 0
3 -17 -19 -21 30 -33 -34 0
3 -17 -19 -21 -30 33 -34 0
3 -17 -19 -21 -30 -33 34 0
-3 17 19 21 30 33 34 0
-3 17 19 21 30 -33 -34 0
-3 17 19 21 -30 33 -34 0
-3 17 19 21 -30 -33 34 0
-3 17 19 -21 30 33 -34 0
-3 17 19 -21 30 -33 34 0
-3 17 19 -21 -30 33 34 0
-3 17 19 -21 -30 -33 -34 0
-3 17 -19 21 30 33 -34 0
-3 17 -19 21 30 -33 34 0
-3 17 -19 21 -30 33 34 0
-3 17 -19 21 -30 -33 -34 0
-3 17 -19 -21 30 33 34 0
-3 17 -19 -21 30 -33 -34 0
-3 17 -19 -21 -30 33 -34 0
-3 17 -19 -21 -30 -33 34 0
-3 -17 19 21 30 33 -34 0
-3 -17 19 21 30 -33 34 0
-3 -17 19 21 -30 33 34 0
-3 -17 19 21 -30 -33 -34 0
-3 -17 19 -21 30 33 34 0
-3 -17 19 -21 30 -33 -34 0
-3 -17 19 -21 -30 33 -34 0
-3 -17 19 -21 -30 -33 34 0
-3 -17 -19 21 30 33 34 0
-3 -17 -19 21 30 -33 -34 0
-3 -17 -19 21 -30 33 -34 0
-3 -17 -19 21 -30 -33 34 0
-3 -17 -19 -21 30 33 -34 0
-3 -17 -19 -21 30 -33 34 0
-3 -17 -19 -21 -30 33 34 0
-3 -17 -19 -21 -30 -33 -34 0
14 -35 0
-14 35 0
25 -36 0
-25 36 0
4 22 26 -37 0
4 22 -26 37 0
4 -22 26 37 0
4 -22 -26 -37 0
-4 22 26 37 0
-4 22 -26 -37 0
-4 -22 26 -37 0
-4 -22 -26 37 0
31 33 -38 0
31 -33 38 0
-31 33 38 0
-31 -33 -38 0
23 27 34 35 -39 0
23 27 34 -35 39 0
23 27 -34 35 39 0
23 27 -34 -35 -39 0
23 -27 34 35 39 0
23 -27 34 -35 -39 0
23 -27 -34 35 -39 0
23 -27 -34 -35 39 0
-23 27 34 35 39 0
-23 27 34 -35 -39 0
-23 27 -34 35 -39 0
-23 27 -34 -35 39 0
-23 -27 34 35 -39 0
-23 -27 34 -35 39 0
-23 -27 -34 35 39 0
-23 -27 -34 -35 -39 0
5 24 32 -40 0
5 24 -32 40 0
5 -24 32 40 0
5 -24 -32 -40 0
-5 24 32 40 0
-5 24 -32 -40 0
-5 -24 32 -40 0
-5 -24 -32 40 0
6 18 29 36 37 38 -39 0
6 18 29 36 37 -38 39 0
6 18 29 36 -37 38 39 0
6 18 29 36 -37 -38 -39 0
6 18 29 -36 37 38 39 0
6 18 29 -36 37 -38 -39 0
6 18 29 -36 -37 38 -39 0
6 18 29 -36 -37 -38 39 0
6 18 -29 36 37 38 39 0
6 18 -29 36 37 -38 -39 0
6 18 -29 36 -37 38 -39 0
6 18 -29 36 -37 -38 39 0
6 18 -29 -36 37 38 -39 0
6 18 -29 -36 37 -38 39 0
6 18 -29 -36 -37 38 39 0
6 18 -29 -36 -37 -38 -39 0
6 -18 29 36 37 38 39 0
6 -18 29 36 37 -38 -39 0
6 -18 29 36 -37 38 -39 0
6 -18 29 36 -37 -38 39 0
6 -18 29 -36 37 38 -39 0
6 -18 29 -36 37 -38 39 0
6 -18 29 -36 -37 38 39 0
6 -18 29 -36 -37 -38 -39 0
6 -18 -29 36 37 38 -39 0
6 -18 -29 36 37 -38 39 0
6 -18 -29 36 -37 38 39 0
6 -18 -29 36 -37 -38 -39 0
6 -18 -29 -36 37 38 39 0
6 -18 -29 -36 37 -38 -39 0
6 -18 -29 -36 -37 38 -39 0
6 -18 -29 -36 -37 -38 39 0
-6 18 29 36 37 38 39 0
-6 18 29 36 37 -38 -39 0
-6 18 29 36 -37 38 -39 0
-6 18 29 36 -37 -38 39 0
-6 18 29 -36 37 38 -39 0
-6 18 29 -36 37 -38 39 0
-6 18 29 -36 -37 38 39 0
-6 18 29 -36 -37 -38 -39 0
-6 18 -29 36 37 38 -39 0
-6 18 -29 36 37 -38 39 0
-6 18 -29 36 -37 38 39 0
-6 18 -29 36 -37 -38 -39 0
-6 18 -29 -36 37 38 39 0
-6 18 -29 -36 37 -38 -39 0
-6 18 -29 -36 -37 38 -39 0
-6 18 -29 -36 -37 -38 39 0
-6 -18 29 36 37 38 -39 0
-6 -18 29 36 37 -38 39 0
-6 -18 29 36 -37 38 39 0
-6 -18 29 36 -37 -38 -39 0
-6 -18 29 -36 37 38 39 0
-6 -18 29 -36 37 -38 -39 0
-6 -18 29 -36 -37 38 -39 0
-6 -18 29 -36 -37 -38 39 0
-6 -18 -29 36 37 38 39 0
-6 -18 -29 36 37 -38 -39 0
-6 -18 -29 36 -37 38 -39 0
-6 -18 -29 36 -37 -38 39 0
-6 -18 -29 -36 37 38 -39 0
-6 -18 -29 -36 37 -38 39 0
-6 -18 -29 -36 -37 38 39 0
-6 -18 -29 -36 -37 -38 -39 0
-40 0